r = [
0,35,26,30,19,20,34,3,20,7,9,14,37,19,14,36,22,32,2,31,6,23,38,5,31,5,0
];
p = [
0,23,24,4,15,24,19,9,8,4,16,25,19,5,11,28,17,13,26,7,6,5,25,27,14,11,0
];
e = [
0,20,9,19,18,10,15,10,10,12,11,14,9,2,6,18,13,13,12,1,14,20,11,12,18,5,0
];
d = [
0,538,479,429,347,491,394,378,338,513,453,223,327,369,328,376,256,214,518,446,211,221,502,454,502,366,559
];
d_bar = [
0,559,501,433,361,513,411,386,345,517,467,246,344,374,338,401,271,226,541,452,216,226,525,478,515,376,559
];
w = [
0,0.952380952,0.409090909,4.75,1.285714286,0.454545455,0.882352941,1.25,1.428571429,3,0.785714286,0.608695652,0.529411765,0.4,0.6,0.72,0.866666667,1.083333333,0.52173913,0.166666667,2.8,4,0.47826087,0.5,1.384615385,0.5,0
];
